c not original file ! May have been modified for weighted vertex coloring problem (edges and vertices stay the same only weights may have been moved to an other file)
p edge 200 2079
e 1 2
e 1 3
e 1 4
e 1 5
e 1 6
e 1 7
e 1 8
e 1 9
e 1 10
e 1 11
e 1 12
e 1 13
e 1 14
e 1 15
e 1 25
e 1 37
e 1 61
e 1 72
e 1 84
e 1 102
e 1 126
e 1 138
e 1 191
e 2 3
e 2 4
e 2 5
e 2 6
e 2 7
e 2 8
e 2 9
e 2 10
e 2 11
e 2 12
e 2 13
e 2 14
e 2 47
e 2 73
e 2 103
e 2 113
e 2 127
e 2 147
e 2 156
e 2 179
e 3 4
e 3 5
e 3 6
e 3 7
e 3 8
e 3 9
e 3 10
e 3 11
e 3 12
e 3 13
e 3 14
e 3 17
e 3 27
e 3 38
e 3 48
e 3 63
e 3 75
e 3 104
e 3 129
e 3 139
e 3 148
e 3 158
e 3 168
e 3 181
e 4 5
e 4 6
e 4 7
e 4 8
e 4 9
e 4 10
e 4 11
e 4 12
e 4 13
e 4 14
e 4 39
e 4 49
e 4 64
e 4 85
e 4 94
e 4 105
e 4 115
e 4 130
e 4 149
e 4 159
e 4 169
e 5 6
e 5 7
e 5 8
e 5 9
e 5 10
e 5 11
e 5 12
e 5 13
e 5 14
e 5 50
e 5 65
e 5 76
e 5 86
e 5 106
e 5 116
e 5 140
e 5 150
e 5 182
e 5 193
e 6 7
e 6 8
e 6 9
e 6 10
e 6 11
e 6 12
e 6 13
e 6 14
e 6 28
e 6 40
e 6 51
e 6 87
e 6 117
e 6 160
e 6 170
e 6 183
e 6 194
e 7 8
e 7 9
e 7 10
e 7 11
e 7 12
e 7 13
e 7 14
e 7 29
e 7 41
e 7 67
e 7 95
e 7 131
e 7 151
e 7 172
e 7 185
e 8 9
e 8 10
e 8 11
e 8 12
e 8 13
e 8 14
e 8 18
e 8 30
e 8 53
e 8 68
e 8 77
e 8 88
e 8 96
e 8 119
e 8 142
e 8 152
e 8 162
e 8 173
e 8 186
e 9 10
e 9 11
e 9 12
e 9 13
e 9 14
e 9 19
e 9 31
e 9 42
e 9 54
e 9 78
e 9 89
e 9 97
e 9 107
e 9 120
e 9 132
e 9 143
e 9 163
e 9 195
e 10 11
e 10 12
e 10 13
e 10 14
e 10 20
e 10 32
e 10 55
e 10 79
e 10 90
e 10 98
e 10 108
e 10 164
e 10 174
e 10 187
e 11 12
e 11 13
e 11 14
e 11 21
e 11 33
e 11 43
e 11 56
e 11 80
e 11 91
e 11 109
e 11 121
e 11 133
e 11 175
e 11 196
e 12 13
e 12 14
e 12 45
e 12 58
e 12 81
e 12 100
e 12 123
e 12 134
e 12 165
e 12 176
e 12 188
e 12 197
e 13 14
e 13 22
e 13 35
e 13 59
e 13 70
e 13 82
e 13 111
e 13 135
e 13 144
e 13 153
e 13 177
e 13 189
e 13 198
e 14 23
e 14 46
e 14 60
e 14 112
e 14 124
e 14 136
e 14 145
e 14 154
e 14 166
e 14 199
e 15 16
e 15 17
e 15 18
e 15 19
e 15 20
e 15 21
e 15 22
e 15 23
e 15 24
e 15 25
e 15 37
e 15 61
e 15 72
e 15 84
e 15 102
e 15 126
e 15 138
e 15 191
e 16 17
e 16 18
e 16 19
e 16 20
e 16 21
e 16 22
e 16 23
e 16 24
e 16 26
e 16 62
e 16 74
e 16 93
e 16 114
e 16 128
e 16 157
e 16 167
e 16 180
e 16 192
e 17 18
e 17 19
e 17 20
e 17 21
e 17 22
e 17 23
e 17 24
e 17 27
e 17 38
e 17 48
e 17 63
e 17 75
e 17 104
e 17 129
e 17 139
e 17 148
e 17 158
e 17 168
e 17 181
e 18 19
e 18 20
e 18 21
e 18 22
e 18 23
e 18 24
e 18 30
e 18 53
e 18 68
e 18 77
e 18 88
e 18 96
e 18 119
e 18 142
e 18 152
e 18 162
e 18 173
e 18 186
e 19 20
e 19 21
e 19 22
e 19 23
e 19 24
e 19 31
e 19 42
e 19 54
e 19 78
e 19 89
e 19 97
e 19 107
e 19 120
e 19 132
e 19 143
e 19 163
e 19 195
e 20 21
e 20 22
e 20 23
e 20 24
e 20 32
e 20 55
e 20 79
e 20 90
e 20 98
e 20 108
e 20 164
e 20 174
e 20 187
e 21 22
e 21 23
e 21 24
e 21 33
e 21 43
e 21 56
e 21 80
e 21 91
e 21 109
e 21 121
e 21 133
e 21 175
e 21 196
e 22 23
e 22 24
e 22 35
e 22 59
e 22 70
e 22 82
e 22 111
e 22 135
e 22 144
e 22 153
e 22 177
e 22 189
e 22 198
e 23 24
e 23 46
e 23 60
e 23 112
e 23 124
e 23 136
e 23 145
e 23 154
e 23 166
e 23 199
e 24 36
e 24 71
e 24 83
e 24 101
e 24 125
e 24 137
e 24 146
e 24 155
e 24 178
e 24 190
e 24 200
e 25 26
e 25 27
e 25 28
e 25 29
e 25 30
e 25 31
e 25 32
e 25 33
e 25 34
e 25 35
e 25 36
e 25 37
e 25 61
e 25 72
e 25 84
e 25 102
e 25 126
e 25 138
e 25 191
e 26 27
e 26 28
e 26 29
e 26 30
e 26 31
e 26 32
e 26 33
e 26 34
e 26 35
e 26 36
e 26 62
e 26 74
e 26 93
e 26 114
e 26 128
e 26 157
e 26 167
e 26 180
e 26 192
e 27 28
e 27 29
e 27 30
e 27 31
e 27 32
e 27 33
e 27 34
e 27 35
e 27 36
e 27 38
e 27 48
e 27 63
e 27 75
e 27 104
e 27 129
e 27 139
e 27 148
e 27 158
e 27 168
e 27 181
e 28 29
e 28 30
e 28 31
e 28 32
e 28 33
e 28 34
e 28 35
e 28 36
e 28 40
e 28 51
e 28 87
e 28 117
e 28 160
e 28 170
e 28 183
e 28 194
e 29 30
e 29 31
e 29 32
e 29 33
e 29 34
e 29 35
e 29 36
e 29 41
e 29 67
e 29 95
e 29 131
e 29 151
e 29 172
e 29 185
e 30 31
e 30 32
e 30 33
e 30 34
e 30 35
e 30 36
e 30 53
e 30 68
e 30 77
e 30 88
e 30 96
e 30 119
e 30 142
e 30 152
e 30 162
e 30 173
e 30 186
e 31 32
e 31 33
e 31 34
e 31 35
e 31 36
e 31 42
e 31 54
e 31 78
e 31 89
e 31 97
e 31 107
e 31 120
e 31 132
e 31 143
e 31 163
e 31 195
e 32 33
e 32 34
e 32 35
e 32 36
e 32 55
e 32 79
e 32 90
e 32 98
e 32 108
e 32 164
e 32 174
e 32 187
e 33 34
e 33 35
e 33 36
e 33 43
e 33 56
e 33 80
e 33 91
e 33 109
e 33 121
e 33 133
e 33 175
e 33 196
e 34 35
e 34 36
e 34 44
e 34 57
e 34 69
e 34 92
e 34 99
e 34 110
e 34 122
e 35 36
e 35 59
e 35 70
e 35 82
e 35 111
e 35 135
e 35 144
e 35 153
e 35 177
e 35 189
e 35 198
e 36 71
e 36 83
e 36 101
e 36 125
e 36 137
e 36 146
e 36 155
e 36 178
e 36 190
e 36 200
e 37 38
e 37 39
e 37 40
e 37 41
e 37 42
e 37 43
e 37 44
e 37 45
e 37 46
e 37 61
e 37 72
e 37 84
e 37 102
e 37 126
e 37 138
e 37 191
e 38 39
e 38 40
e 38 41
e 38 42
e 38 43
e 38 44
e 38 45
e 38 46
e 38 48
e 38 63
e 38 75
e 38 104
e 38 129
e 38 139
e 38 148
e 38 158
e 38 168
e 38 181
e 39 40
e 39 41
e 39 42
e 39 43
e 39 44
e 39 45
e 39 46
e 39 49
e 39 64
e 39 85
e 39 94
e 39 105
e 39 115
e 39 130
e 39 149
e 39 159
e 39 169
e 40 41
e 40 42
e 40 43
e 40 44
e 40 45
e 40 46
e 40 51
e 40 87
e 40 117
e 40 160
e 40 170
e 40 183
e 40 194
e 41 42
e 41 43
e 41 44
e 41 45
e 41 46
e 41 67
e 41 95
e 41 131
e 41 151
e 41 172
e 41 185
e 42 43
e 42 44
e 42 45
e 42 46
e 42 54
e 42 78
e 42 89
e 42 97
e 42 107
e 42 120
e 42 132
e 42 143
e 42 163
e 42 195
e 43 44
e 43 45
e 43 46
e 43 56
e 43 80
e 43 91
e 43 109
e 43 121
e 43 133
e 43 175
e 43 196
e 44 45
e 44 46
e 44 57
e 44 69
e 44 92
e 44 99
e 44 110
e 44 122
e 45 46
e 45 58
e 45 81
e 45 100
e 45 123
e 45 134
e 45 165
e 45 176
e 45 188
e 45 197
e 46 60
e 46 112
e 46 124
e 46 136
e 46 145
e 46 154
e 46 166
e 46 199
e 47 48
e 47 49
e 47 50
e 47 51
e 47 52
e 47 53
e 47 54
e 47 55
e 47 56
e 47 57
e 47 58
e 47 59
e 47 60
e 47 73
e 47 103
e 47 113
e 47 127
e 47 147
e 47 156
e 47 179
e 48 49
e 48 50
e 48 51
e 48 52
e 48 53
e 48 54
e 48 55
e 48 56
e 48 57
e 48 58
e 48 59
e 48 60
e 48 63
e 48 75
e 48 104
e 48 129
e 48 139
e 48 148
e 48 158
e 48 168
e 48 181
e 49 50
e 49 51
e 49 52
e 49 53
e 49 54
e 49 55
e 49 56
e 49 57
e 49 58
e 49 59
e 49 60
e 49 64
e 49 85
e 49 94
e 49 105
e 49 115
e 49 130
e 49 149
e 49 159
e 49 169
e 50 51
e 50 52
e 50 53
e 50 54
e 50 55
e 50 56
e 50 57
e 50 58
e 50 59
e 50 60
e 50 65
e 50 76
e 50 86
e 50 106
e 50 116
e 50 140
e 50 150
e 50 182
e 50 193
e 51 52
e 51 53
e 51 54
e 51 55
e 51 56
e 51 57
e 51 58
e 51 59
e 51 60
e 51 87
e 51 117
e 51 160
e 51 170
e 51 183
e 51 194
e 52 53
e 52 54
e 52 55
e 52 56
e 52 57
e 52 58
e 52 59
e 52 60
e 52 66
e 52 118
e 52 141
e 52 161
e 52 171
e 52 184
e 53 54
e 53 55
e 53 56
e 53 57
e 53 58
e 53 59
e 53 60
e 53 68
e 53 77
e 53 88
e 53 96
e 53 119
e 53 142
e 53 152
e 53 162
e 53 173
e 53 186
e 54 55
e 54 56
e 54 57
e 54 58
e 54 59
e 54 60
e 54 78
e 54 89
e 54 97
e 54 107
e 54 120
e 54 132
e 54 143
e 54 163
e 54 195
e 55 56
e 55 57
e 55 58
e 55 59
e 55 60
e 55 79
e 55 90
e 55 98
e 55 108
e 55 164
e 55 174
e 55 187
e 56 57
e 56 58
e 56 59
e 56 60
e 56 80
e 56 91
e 56 109
e 56 121
e 56 133
e 56 175
e 56 196
e 57 58
e 57 59
e 57 60
e 57 69
e 57 92
e 57 99
e 57 110
e 57 122
e 58 59
e 58 60
e 58 81
e 58 100
e 58 123
e 58 134
e 58 165
e 58 176
e 58 188
e 58 197
e 59 60
e 59 70
e 59 82
e 59 111
e 59 135
e 59 144
e 59 153
e 59 177
e 59 189
e 59 198
e 60 112
e 60 124
e 60 136
e 60 145
e 60 154
e 60 166
e 60 199
e 61 62
e 61 63
e 61 64
e 61 65
e 61 66
e 61 67
e 61 68
e 61 69
e 61 70
e 61 71
e 61 72
e 61 84
e 61 102
e 61 126
e 61 138
e 61 191
e 62 63
e 62 64
e 62 65
e 62 66
e 62 67
e 62 68
e 62 69
e 62 70
e 62 71
e 62 74
e 62 93
e 62 114
e 62 128
e 62 157
e 62 167
e 62 180
e 62 192
e 63 64
e 63 65
e 63 66
e 63 67
e 63 68
e 63 69
e 63 70
e 63 71
e 63 75
e 63 104
e 63 129
e 63 139
e 63 148
e 63 158
e 63 168
e 63 181
e 64 65
e 64 66
e 64 67
e 64 68
e 64 69
e 64 70
e 64 71
e 64 85
e 64 94
e 64 105
e 64 115
e 64 130
e 64 149
e 64 159
e 64 169
e 65 66
e 65 67
e 65 68
e 65 69
e 65 70
e 65 71
e 65 76
e 65 86
e 65 106
e 65 116
e 65 140
e 65 150
e 65 182
e 65 193
e 66 67
e 66 68
e 66 69
e 66 70
e 66 71
e 66 118
e 66 141
e 66 161
e 66 171
e 66 184
e 67 68
e 67 69
e 67 70
e 67 71
e 67 95
e 67 131
e 67 151
e 67 172
e 67 185
e 68 69
e 68 70
e 68 71
e 68 77
e 68 88
e 68 96
e 68 119
e 68 142
e 68 152
e 68 162
e 68 173
e 68 186
e 69 70
e 69 71
e 69 92
e 69 99
e 69 110
e 69 122
e 70 71
e 70 82
e 70 111
e 70 135
e 70 144
e 70 153
e 70 177
e 70 189
e 70 198
e 71 83
e 71 101
e 71 125
e 71 137
e 71 146
e 71 155
e 71 178
e 71 190
e 71 200
e 72 73
e 72 74
e 72 75
e 72 76
e 72 77
e 72 78
e 72 79
e 72 80
e 72 81
e 72 82
e 72 83
e 72 84
e 72 102
e 72 126
e 72 138
e 72 191
e 73 74
e 73 75
e 73 76
e 73 77
e 73 78
e 73 79
e 73 80
e 73 81
e 73 82
e 73 83
e 73 103
e 73 113
e 73 127
e 73 147
e 73 156
e 73 179
e 74 75
e 74 76
e 74 77
e 74 78
e 74 79
e 74 80
e 74 81
e 74 82
e 74 83
e 74 93
e 74 114
e 74 128
e 74 157
e 74 167
e 74 180
e 74 192
e 75 76
e 75 77
e 75 78
e 75 79
e 75 80
e 75 81
e 75 82
e 75 83
e 75 104
e 75 129
e 75 139
e 75 148
e 75 158
e 75 168
e 75 181
e 76 77
e 76 78
e 76 79
e 76 80
e 76 81
e 76 82
e 76 83
e 76 86
e 76 106
e 76 116
e 76 140
e 76 150
e 76 182
e 76 193
e 77 78
e 77 79
e 77 80
e 77 81
e 77 82
e 77 83
e 77 88
e 77 96
e 77 119
e 77 142
e 77 152
e 77 162
e 77 173
e 77 186
e 78 79
e 78 80
e 78 81
e 78 82
e 78 83
e 78 89
e 78 97
e 78 107
e 78 120
e 78 132
e 78 143
e 78 163
e 78 195
e 79 80
e 79 81
e 79 82
e 79 83
e 79 90
e 79 98
e 79 108
e 79 164
e 79 174
e 79 187
e 80 81
e 80 82
e 80 83
e 80 91
e 80 109
e 80 121
e 80 133
e 80 175
e 80 196
e 81 82
e 81 83
e 81 100
e 81 123
e 81 134
e 81 165
e 81 176
e 81 188
e 81 197
e 82 83
e 82 111
e 82 135
e 82 144
e 82 153
e 82 177
e 82 189
e 82 198
e 83 101
e 83 125
e 83 137
e 83 146
e 83 155
e 83 178
e 83 190
e 83 200
e 84 85
e 84 86
e 84 87
e 84 88
e 84 89
e 84 90
e 84 91
e 84 92
e 84 102
e 84 126
e 84 138
e 84 191
e 85 86
e 85 87
e 85 88
e 85 89
e 85 90
e 85 91
e 85 92
e 85 94
e 85 105
e 85 115
e 85 130
e 85 149
e 85 159
e 85 169
e 86 87
e 86 88
e 86 89
e 86 90
e 86 91
e 86 92
e 86 106
e 86 116
e 86 140
e 86 150
e 86 182
e 86 193
e 87 88
e 87 89
e 87 90
e 87 91
e 87 92
e 87 117
e 87 160
e 87 170
e 87 183
e 87 194
e 88 89
e 88 90
e 88 91
e 88 92
e 88 96
e 88 119
e 88 142
e 88 152
e 88 162
e 88 173
e 88 186
e 89 90
e 89 91
e 89 92
e 89 97
e 89 107
e 89 120
e 89 132
e 89 143
e 89 163
e 89 195
e 90 91
e 90 92
e 90 98
e 90 108
e 90 164
e 90 174
e 90 187
e 91 92
e 91 109
e 91 121
e 91 133
e 91 175
e 91 196
e 92 99
e 92 110
e 92 122
e 93 94
e 93 95
e 93 96
e 93 97
e 93 98
e 93 99
e 93 100
e 93 101
e 93 114
e 93 128
e 93 157
e 93 167
e 93 180
e 93 192
e 94 95
e 94 96
e 94 97
e 94 98
e 94 99
e 94 100
e 94 101
e 94 105
e 94 115
e 94 130
e 94 149
e 94 159
e 94 169
e 95 96
e 95 97
e 95 98
e 95 99
e 95 100
e 95 101
e 95 131
e 95 151
e 95 172
e 95 185
e 96 97
e 96 98
e 96 99
e 96 100
e 96 101
e 96 119
e 96 142
e 96 152
e 96 162
e 96 173
e 96 186
e 97 98
e 97 99
e 97 100
e 97 101
e 97 107
e 97 120
e 97 132
e 97 143
e 97 163
e 97 195
e 98 99
e 98 100
e 98 101
e 98 108
e 98 164
e 98 174
e 98 187
e 99 100
e 99 101
e 99 110
e 99 122
e 100 101
e 100 123
e 100 134
e 100 165
e 100 176
e 100 188
e 100 197
e 101 125
e 101 137
e 101 146
e 101 155
e 101 178
e 101 190
e 101 200
e 102 103
e 102 104
e 102 105
e 102 106
e 102 107
e 102 108
e 102 109
e 102 110
e 102 111
e 102 112
e 102 126
e 102 138
e 102 191
e 103 104
e 103 105
e 103 106
e 103 107
e 103 108
e 103 109
e 103 110
e 103 111
e 103 112
e 103 113
e 103 127
e 103 147
e 103 156
e 103 179
e 104 105
e 104 106
e 104 107
e 104 108
e 104 109
e 104 110
e 104 111
e 104 112
e 104 129
e 104 139
e 104 148
e 104 158
e 104 168
e 104 181
e 105 106
e 105 107
e 105 108
e 105 109
e 105 110
e 105 111
e 105 112
e 105 115
e 105 130
e 105 149
e 105 159
e 105 169
e 106 107
e 106 108
e 106 109
e 106 110
e 106 111
e 106 112
e 106 116
e 106 140
e 106 150
e 106 182
e 106 193
e 107 108
e 107 109
e 107 110
e 107 111
e 107 112
e 107 120
e 107 132
e 107 143
e 107 163
e 107 195
e 108 109
e 108 110
e 108 111
e 108 112
e 108 164
e 108 174
e 108 187
e 109 110
e 109 111
e 109 112
e 109 121
e 109 133
e 109 175
e 109 196
e 110 111
e 110 112
e 110 122
e 111 112
e 111 135
e 111 144
e 111 153
e 111 177
e 111 189
e 111 198
e 112 124
e 112 136
e 112 145
e 112 154
e 112 166
e 112 199
e 113 114
e 113 115
e 113 116
e 113 117
e 113 118
e 113 119
e 113 120
e 113 121
e 113 122
e 113 123
e 113 124
e 113 125
e 113 127
e 113 147
e 113 156
e 113 179
e 114 115
e 114 116
e 114 117
e 114 118
e 114 119
e 114 120
e 114 121
e 114 122
e 114 123
e 114 124
e 114 125
e 114 128
e 114 157
e 114 167
e 114 180
e 114 192
e 115 116
e 115 117
e 115 118
e 115 119
e 115 120
e 115 121
e 115 122
e 115 123
e 115 124
e 115 125
e 115 130
e 115 149
e 115 159
e 115 169
e 116 117
e 116 118
e 116 119
e 116 120
e 116 121
e 116 122
e 116 123
e 116 124
e 116 125
e 116 140
e 116 150
e 116 182
e 116 193
e 117 118
e 117 119
e 117 120
e 117 121
e 117 122
e 117 123
e 117 124
e 117 125
e 117 160
e 117 170
e 117 183
e 117 194
e 118 119
e 118 120
e 118 121
e 118 122
e 118 123
e 118 124
e 118 125
e 118 141
e 118 161
e 118 171
e 118 184
e 119 120
e 119 121
e 119 122
e 119 123
e 119 124
e 119 125
e 119 142
e 119 152
e 119 162
e 119 173
e 119 186
e 120 121
e 120 122
e 120 123
e 120 124
e 120 125
e 120 132
e 120 143
e 120 163
e 120 195
e 121 122
e 121 123
e 121 124
e 121 125
e 121 133
e 121 175
e 121 196
e 122 123
e 122 124
e 122 125
e 123 124
e 123 125
e 123 134
e 123 165
e 123 176
e 123 188
e 123 197
e 124 125
e 124 136
e 124 145
e 124 154
e 124 166
e 124 199
e 125 137
e 125 146
e 125 155
e 125 178
e 125 190
e 125 200
e 126 127
e 126 128
e 126 129
e 126 130
e 126 131
e 126 132
e 126 133
e 126 134
e 126 135
e 126 136
e 126 137
e 126 138
e 126 191
e 127 128
e 127 129
e 127 130
e 127 131
e 127 132
e 127 133
e 127 134
e 127 135
e 127 136
e 127 137
e 127 147
e 127 156
e 127 179
e 128 129
e 128 130
e 128 131
e 128 132
e 128 133
e 128 134
e 128 135
e 128 136
e 128 137
e 128 157
e 128 167
e 128 180
e 128 192
e 129 130
e 129 131
e 129 132
e 129 133
e 129 134
e 129 135
e 129 136
e 129 137
e 129 139
e 129 148
e 129 158
e 129 168
e 129 181
e 130 131
e 130 132
e 130 133
e 130 134
e 130 135
e 130 136
e 130 137
e 130 149
e 130 159
e 130 169
e 131 132
e 131 133
e 131 134
e 131 135
e 131 136
e 131 137
e 131 151
e 131 172
e 131 185
e 132 133
e 132 134
e 132 135
e 132 136
e 132 137
e 132 143
e 132 163
e 132 195
e 133 134
e 133 135
e 133 136
e 133 137
e 133 175
e 133 196
e 134 135
e 134 136
e 134 137
e 134 165
e 134 176
e 134 188
e 134 197
e 135 136
e 135 137
e 135 144
e 135 153
e 135 177
e 135 189
e 135 198
e 136 137
e 136 145
e 136 154
e 136 166
e 136 199
e 137 146
e 137 155
e 137 178
e 137 190
e 137 200
e 138 139
e 138 140
e 138 141
e 138 142
e 138 143
e 138 144
e 138 145
e 138 146
e 138 191
e 139 140
e 139 141
e 139 142
e 139 143
e 139 144
e 139 145
e 139 146
e 139 148
e 139 158
e 139 168
e 139 181
e 140 141
e 140 142
e 140 143
e 140 144
e 140 145
e 140 146
e 140 150
e 140 182
e 140 193
e 141 142
e 141 143
e 141 144
e 141 145
e 141 146
e 141 161
e 141 171
e 141 184
e 142 143
e 142 144
e 142 145
e 142 146
e 142 152
e 142 162
e 142 173
e 142 186
e 143 144
e 143 145
e 143 146
e 143 163
e 143 195
e 144 145
e 144 146
e 144 153
e 144 177
e 144 189
e 144 198
e 145 146
e 145 154
e 145 166
e 145 199
e 146 155
e 146 178
e 146 190
e 146 200
e 147 148
e 147 149
e 147 150
e 147 151
e 147 152
e 147 153
e 147 154
e 147 155
e 147 156
e 147 179
e 148 149
e 148 150
e 148 151
e 148 152
e 148 153
e 148 154
e 148 155
e 148 158
e 148 168
e 148 181
e 149 150
e 149 151
e 149 152
e 149 153
e 149 154
e 149 155
e 149 159
e 149 169
e 150 151
e 150 152
e 150 153
e 150 154
e 150 155
e 150 182
e 150 193
e 151 152
e 151 153
e 151 154
e 151 155
e 151 172
e 151 185
e 152 153
e 152 154
e 152 155
e 152 162
e 152 173
e 152 186
e 153 154
e 153 155
e 153 177
e 153 189
e 153 198
e 154 155
e 154 166
e 154 199
e 155 178
e 155 190
e 155 200
e 156 157
e 156 158
e 156 159
e 156 160
e 156 161
e 156 162
e 156 163
e 156 164
e 156 165
e 156 166
e 156 179
e 157 158
e 157 159
e 157 160
e 157 161
e 157 162
e 157 163
e 157 164
e 157 165
e 157 166
e 157 167
e 157 180
e 157 192
e 158 159
e 158 160
e 158 161
e 158 162
e 158 163
e 158 164
e 158 165
e 158 166
e 158 168
e 158 181
e 159 160
e 159 161
e 159 162
e 159 163
e 159 164
e 159 165
e 159 166
e 159 169
e 160 161
e 160 162
e 160 163
e 160 164
e 160 165
e 160 166
e 160 170
e 160 183
e 160 194
e 161 162
e 161 163
e 161 164
e 161 165
e 161 166
e 161 171
e 161 184
e 162 163
e 162 164
e 162 165
e 162 166
e 162 173
e 162 186
e 163 164
e 163 165
e 163 166
e 163 195
e 164 165
e 164 166
e 164 174
e 164 187
e 165 166
e 165 176
e 165 188
e 165 197
e 166 199
e 167 168
e 167 169
e 167 170
e 167 171
e 167 172
e 167 173
e 167 174
e 167 175
e 167 176
e 167 177
e 167 178
e 167 180
e 167 192
e 168 169
e 168 170
e 168 171
e 168 172
e 168 173
e 168 174
e 168 175
e 168 176
e 168 177
e 168 178
e 168 181
e 169 170
e 169 171
e 169 172
e 169 173
e 169 174
e 169 175
e 169 176
e 169 177
e 169 178
e 170 171
e 170 172
e 170 173
e 170 174
e 170 175
e 170 176
e 170 177
e 170 178
e 170 183
e 170 194
e 171 172
e 171 173
e 171 174
e 171 175
e 171 176
e 171 177
e 171 178
e 171 184
e 172 173
e 172 174
e 172 175
e 172 176
e 172 177
e 172 178
e 172 185
e 173 174
e 173 175
e 173 176
e 173 177
e 173 178
e 173 186
e 174 175
e 174 176
e 174 177
e 174 178
e 174 187
e 175 176
e 175 177
e 175 178
e 175 196
e 176 177
e 176 178
e 176 188
e 176 197
e 177 178
e 177 189
e 177 198
e 178 190
e 178 200
e 179 180
e 179 181
e 179 182
e 179 183
e 179 184
e 179 185
e 179 186
e 179 187
e 179 188
e 179 189
e 179 190
e 180 181
e 180 182
e 180 183
e 180 184
e 180 185
e 180 186
e 180 187
e 180 188
e 180 189
e 180 190
e 180 192
e 181 182
e 181 183
e 181 184
e 181 185
e 181 186
e 181 187
e 181 188
e 181 189
e 181 190
e 182 183
e 182 184
e 182 185
e 182 186
e 182 187
e 182 188
e 182 189
e 182 190
e 182 193
e 183 184
e 183 185
e 183 186
e 183 187
e 183 188
e 183 189
e 183 190
e 183 194
e 184 185
e 184 186
e 184 187
e 184 188
e 184 189
e 184 190
e 185 186
e 185 187
e 185 188
e 185 189
e 185 190
e 186 187
e 186 188
e 186 189
e 186 190
e 187 188
e 187 189
e 187 190
e 188 189
e 188 190
e 188 197
e 189 190
e 189 198
e 190 200
e 191 192
e 191 193
e 191 194
e 191 195
e 191 196
e 191 197
e 191 198
e 191 199
e 191 200
e 192 193
e 192 194
e 192 195
e 192 196
e 192 197
e 192 198
e 192 199
e 192 200
e 193 194
e 193 195
e 193 196
e 193 197
e 193 198
e 193 199
e 193 200
e 194 195
e 194 196
e 194 197
e 194 198
e 194 199
e 194 200
e 195 196
e 195 197
e 195 198
e 195 199
e 195 200
e 196 197
e 196 198
e 196 199
e 196 200
e 197 198
e 197 199
e 197 200
e 198 199
e 198 200
e 199 200
